words_hard_train/7000.qaiger
aag 50 14 0 1 36
2
4
8
12
16
20
28
32
36
42
58
68
76
92
101
6 3 5
10 6 9
14 10 13
18 14 17
22 19 20
24 18 21
26 23 25
30 26 29
34 24 33
38 34 37
40 31 39
44 29 43
46 28 42
48 45 47
50 25 32
52 51 35
54 48 52
56 40 55
60 47 58
62 46 59
64 61 63
66 11 12
70 67 68
72 70 15
74 64 73
78 11 76
80 7 8
82 78 81
84 74 83
86 35 36
88 84 87
90 15 16
94 91 92
96 94 19
98 88 97
100 56 98
i0 1 x2[0]
i1 1 x2[1]
i2 1 x2[2]
i3 1 x2[3]
i4 1 x2[4]
i5 1 x2[5]
i6 2 y2[5]
i7 1 x2[6]
i8 1 x2[7]
i9 2 y2[6]
i10 2 y2[7]
i11 2 y2[3]
i12 2 y2[2]
i13 2 y2[4]
o0 bv[0]
c
simplified
  <
    -125
    and
      add
        2 y2
        -96
      unary minus
        1 x2
