words_hard_train/7000.qaiger.qdimacs
p cnf 50 109
a 1 2 4 6 8 10 16 18 0
e 3 5 7 9 11 12 13 14 15 17 19 20 21 22 23 24 25 26 27 28 29 30 31 32 33 34 35 36 37 38 39 40 41 42 43 44 45 46 47 48 49 50 0
1 2 3 0
-1 -3 0
-2 -3 0
-3 4 5 0
3 -5 0
-4 -5 0
-5 6 7 0
5 -7 0
-6 -7 0
-7 8 9 0
7 -9 0
-8 -9 0
9 -10 11 0
-9 -11 0
10 -11 0
-9 10 12 0
9 -12 0
-10 -12 0
11 12 13 0
-11 -13 0
-12 -13 0
-13 14 15 0
13 -15 0
-14 -15 0
-12 16 17 0
12 -17 0
-16 -17 0
-17 18 19 0
17 -19 0
-18 -19 0
15 19 20 0
-15 -20 0
-19 -20 0
14 21 22 0
-14 -22 0
-21 -22 0
-14 -21 23 0
14 -23 0
21 -23 0
22 23 24 0
-22 -24 0
-23 -24 0
12 -16 25 0
-12 -25 0
16 -25 0
25 17 26 0
-25 -26 0
-17 -26 0
-24 -26 27 0
24 -27 0
26 -27 0
-20 27 28 0
20 -28 0
-27 -28 0
23 -29 30 0
-23 -30 0
29 -30 0
-23 29 31 0
23 -31 0
-29 -31 0
30 31 32 0
-30 -32 0
-31 -32 0
5 -6 33 0
-5 -33 0
6 -33 0
33 -34 35 0
-33 -35 0
34 -35 0
-35 7 36 0
35 -36 0
-7 -36 0
-32 36 37 0
32 -37 0
-36 -37 0
5 -38 39 0
-5 -39 0
38 -39 0
3 -4 40 0
-3 -40 0
4 -40 0
-39 40 41 0
39 -41 0
-40 -41 0
-37 41 42 0
37 -42 0
-41 -42 0
17 -18 43 0
-17 -43 0
18 -43 0
-42 43 44 0
42 -44 0
-43 -44 0
7 -8 45 0
-7 -45 0
8 -45 0
45 -46 47 0
-45 -47 0
46 -47 0
-47 9 48 0
47 -48 0
-9 -48 0
-44 48 49 0
44 -49 0
-48 -49 0
-28 -49 50 0
28 -50 0
49 -50 0
-50 0
